Route #1: 101 61 17 41 69 75 118 147 15 122 38 143
Route #2: 16 68 36 103 65 87 97 142 128 26 120 14
Route #3: 56 67 4 35 54 6 121 3 62 99 32 42
Route #4: 152 37 116 27 130 111 132 102 96 150 8 149
Route #5: 44 124 86 94 66 28 7 145 127 104 46 19
Route #6: 129 91 63 64 141 43 88 47 70 92 137 13
Route #7: 151 100 51 90 82 11 77 45 83 57 24 156
Route #8: 72 34 18 107 79 74 30 22 84 33 48 113
Route #9: 2 153 114 29 58 39 10 134 52 138 25 155
Route #10: 139 125 112 89 81 109 60 12 119 76 136 5
Route #11: 148 126 1 117 9 108 40 80 146 78 59 71
Route #12: 105 95 115 55 131 133 50 23 31 140 85 144
Route #13: 49 20 93 106 73 135 21 53 123 98 154 110
Cost 17931
